n = 10; 

m= 10; 

																							
86	25	39	76	24	38	5	91	29	22
10	79	93	2	87	17	18	10	50	8
44	25	85	86	73	58	95	13	50	39
94	43	6	47	45	51	73	49	31	58
3	18	43	41	83	62	27	75	52	58
39	23	28	31	86	19	85	90	77	4
1	92	83	43	3	3	51	5	38	37
63	96	50	12	15	11	33	7	4	58
86	36	19	71	8	77	8	6	40	39
44	25	85	86	73	58	95	13	50	39
									


 


	 












 
 


 

 
